10
0 5 0 7 0 3 8 7 0 0
6 0 4 0 2 0 0 0 4 10
0 4 0 5 0 0 7 0 0 0
0 1 5 0 9 2 0 3 0 12
0 2 0 9 0 13 0 8 0 8
3 0 0 0 0 0 1 0 0 0
8 0 7 0 0 1 0 9 4 0
0 3 0 3 0 7 0 0 6 5
0 0 2 0 5 0 4 7 0 6
0 10 0 12 8 0 0 5 6 0
39
0 5 6 8 2 3 7 9 4 1 0
